20	5			
5	76	74	99	26
74	21	83	52	90
67	48	6	66	38
97	36	71	68	81
87	86	64	11	31
1	42	20	90	23
69	32	99	26	57
69	12	54	80	16
11	63	24	16	89
87	52	43	10	26
25	59	88	87	40
50	42	72	77	29
58	76	71	82	94
79	48	20	63	97
35	57	78	99	80
70	76	53	2	19
79	22	77	74	95
34	99	49	3	61
37	24	32	35	4
50	88	46	63	76
